677 15
3 3 3 3 3 3 3 3 3 3 3 3 3 3 3
0  0 0 0 0 0 0 0 0 0 0 0 0 0 0 0  45 2 17 32 47 62 77 92 107 122 137 152 167 182 197 212 227 242 257 272 287 302 317 332 347 362 377 392 407 422 437 452 467 482 497 512 527 542 557 572 587 602 617 632 647 662
19  0 0 0 0 0 1 0 0 0 0 0 0 0 0 0  1 3
64  0 0 0 0 0 0 1 0 0 0 0 0 0 0 0  1 4
73  0 0 0 0 0 0 0 0 0 0 0 1 0 0 0  1 5
13  0 0 0 0 0 0 0 0 0 1 0 0 0 0 0  1 6
84  0 0 1 0 0 0 0 0 0 0 0 0 0 0 0  1 7
88  0 0 0 0 0 0 0 0 0 0 0 0 0 0 1  1 8
85  0 0 0 1 0 0 0 0 0 0 0 0 0 0 0  1 9
41  0 0 0 0 0 0 0 0 0 0 1 0 0 0 0  1 10
53  0 0 0 0 0 0 0 0 0 0 0 0 1 0 0  1 11
80  0 0 0 0 0 0 0 0 0 0 0 0 0 1 0  1 12
66  0 1 0 0 0 0 0 0 0 0 0 0 0 0 0  1 13
46  0 0 0 0 0 0 0 1 0 0 0 0 0 0 0  1 14
59  0 0 0 0 0 0 0 0 1 0 0 0 0 0 0  1 15
25  0 0 0 0 1 0 0 0 0 0 0 0 0 0 0  1 16
62  1 0 0 0 0 0 0 0 0 0 0 0 0 0 0  1 677
67  0 1 0 0 0 0 0 0 0 0 0 0 0 0 0  1 18
74  0 0 0 1 0 0 0 0 0 0 0 0 0 0 0  1 19
41  0 0 0 0 0 0 0 1 0 0 0 0 0 0 0  1 20
57  0 0 1 0 0 0 0 0 0 0 0 0 0 0 0  1 21
52  0 0 0 0 0 0 0 0 0 0 0 0 0 0 1  1 22
14  1 0 0 0 0 0 0 0 0 0 0 0 0 0 0  1 23
64  0 0 0 0 0 0 0 0 0 1 0 0 0 0 0  1 24
84  0 0 0 0 0 0 0 0 1 0 0 0 0 0 0  1 25
78  0 0 0 0 0 0 1 0 0 0 0 0 0 0 0  1 26
47  0 0 0 0 0 1 0 0 0 0 0 0 0 0 0  1 27
28  0 0 0 0 0 0 0 0 0 0 0 0 0 1 0  1 28
84  0 0 0 0 1 0 0 0 0 0 0 0 0 0 0  1 29
63  0 0 0 0 0 0 0 0 0 0 1 0 0 0 0  1 30
26  0 0 0 0 0 0 0 0 0 0 0 0 1 0 0  1 31
46  0 0 0 0 0 0 0 0 0 0 0 1 0 0 0  1 677
97  0 0 0 0 0 0 1 0 0 0 0 0 0 0 0  1 33
95  0 0 0 0 0 0 0 0 1 0 0 0 0 0 0  1 34
64  1 0 0 0 0 0 0 0 0 0 0 0 0 0 0  1 35
38  0 0 0 0 0 0 0 0 0 1 0 0 0 0 0  1 36
59  0 0 0 0 0 0 0 0 0 0 1 0 0 0 0  1 37
95  0 0 0 0 0 0 0 0 0 0 0 0 1 0 0  1 38
17  0 0 1 0 0 0 0 0 0 0 0 0 0 0 0  1 39
65  0 0 0 0 0 0 0 0 0 0 0 1 0 0 0  1 40
93  0 0 0 0 0 0 0 0 0 0 0 0 0 1 0  1 41
10  0 0 0 1 0 0 0 0 0 0 0 0 0 0 0  1 42
73  0 0 0 0 0 1 0 0 0 0 0 0 0 0 0  1 43
11  0 1 0 0 0 0 0 0 0 0 0 0 0 0 0  1 44
85  0 0 0 0 1 0 0 0 0 0 0 0 0 0 0  1 45
46  0 0 0 0 0 0 0 0 0 0 0 0 0 0 1  1 46
67  0 0 0 0 0 0 0 1 0 0 0 0 0 0 0  1 677
23  0 0 0 0 0 0 0 0 0 0 1 0 0 0 0  1 48
49  0 0 0 0 0 0 0 0 0 0 0 0 1 0 0  1 49
32  0 0 0 1 0 0 0 0 0 0 0 0 0 0 0  1 50
66  0 0 0 0 1 0 0 0 0 0 0 0 0 0 0  1 51
43  0 0 1 0 0 0 0 0 0 0 0 0 0 0 0  1 52
60  1 0 0 0 0 0 0 0 0 0 0 0 0 0 0  1 53
41  0 0 0 0 0 0 0 0 1 0 0 0 0 0 0  1 54
61  0 0 0 0 0 0 0 1 0 0 0 0 0 0 0  1 55
70  0 0 0 0 0 0 0 0 0 0 0 0 0 1 0  1 56
49  0 0 0 0 0 0 0 0 0 1 0 0 0 0 0  1 57
17  0 0 0 0 0 0 0 0 0 0 0 1 0 0 0  1 58
90  0 0 0 0 0 0 1 0 0 0 0 0 0 0 0  1 59
85  0 1 0 0 0 0 0 0 0 0 0 0 0 0 0  1 60
99  0 0 0 0 0 0 0 0 0 0 0 0 0 0 1  1 61
85  0 0 0 0 0 1 0 0 0 0 0 0 0 0 0  1 677
98  0 0 0 0 0 0 0 0 0 1 0 0 0 0 0  1 63
57  0 0 0 0 0 0 0 0 1 0 0 0 0 0 0  1 64
73  0 0 0 1 0 0 0 0 0 0 0 0 0 0 0  1 65
9  0 0 0 0 0 0 1 0 0 0 0 0 0 0 0  1 66
73  1 0 0 0 0 0 0 0 0 0 0 0 0 0 0  1 67
7  0 0 0 0 0 0 0 1 0 0 0 0 0 0 0  1 68
98  0 1 0 0 0 0 0 0 0 0 0 0 0 0 0  1 69
13  0 0 0 0 1 0 0 0 0 0 0 0 0 0 0  1 70
41  0 0 0 0 0 0 0 0 0 0 0 0 0 1 0  1 71
40  0 0 0 0 0 1 0 0 0 0 0 0 0 0 0  1 72
85  0 0 0 0 0 0 0 0 0 0 0 1 0 0 0  1 73
37  0 0 0 0 0 0 0 0 0 0 1 0 0 0 0  1 74
68  0 0 1 0 0 0 0 0 0 0 0 0 0 0 0  1 75
79  0 0 0 0 0 0 0 0 0 0 0 0 0 0 1  1 76
17  0 0 0 0 0 0 0 0 0 0 0 0 1 0 0  1 677
66  0 0 0 0 0 0 0 0 0 0 0 1 0 0 0  1 78
53  0 0 0 0 0 0 0 1 0 0 0 0 0 0 0  1 79
86  0 0 0 0 0 1 0 0 0 0 0 0 0 0 0  1 80
40  0 0 0 0 0 0 1 0 0 0 0 0 0 0 0  1 81
14  1 0 0 0 0 0 0 0 0 0 0 0 0 0 0  1 82
19  0 0 0 1 0 0 0 0 0 0 0 0 0 0 0  1 83
96  0 0 0 0 0 0 0 0 0 0 0 0 0 1 0  1 84
95  0 0 0 0 1 0 0 0 0 0 0 0 0 0 0  1 85
54  0 0 1 0 0 0 0 0 0 0 0 0 0 0 0  1 86
84  0 0 0 0 0 0 0 0 0 0 1 0 0 0 0  1 87
97  0 0 0 0 0 0 0 0 0 0 0 0 1 0 0  1 88
16  0 0 0 0 0 0 0 0 1 0 0 0 0 0 0  1 89
52  0 0 0 0 0 0 0 0 0 0 0 0 0 0 1  1 90
76  0 1 0 0 0 0 0 0 0 0 0 0 0 0 0  1 91
87  0 0 0 0 0 0 0 0 0 1 0 0 0 0 0  1 677
77  0 0 0 0 1 0 0 0 0 0 0 0 0 0 0  1 93
55  0 0 1 0 0 0 0 0 0 0 0 0 0 0 0  1 94
42  0 0 0 0 0 0 0 0 0 1 0 0 0 0 0  1 95
74  0 0 0 0 0 1 0 0 0 0 0 0 0 0 0  1 96
91  0 0 0 0 0 0 0 0 0 0 0 0 0 0 1  1 97
33  0 0 0 0 0 0 0 0 0 0 0 0 0 1 0  1 98
16  0 0 0 0 0 0 0 0 0 0 1 0 0 0 0  1 99
54  0 0 0 0 0 0 0 0 0 0 0 0 1 0 0  1 100
18  1 0 0 0 0 0 0 0 0 0 0 0 0 0 0  1 101
87  0 0 0 1 0 0 0 0 0 0 0 0 0 0 0  1 102
60  0 0 0 0 0 0 0 1 0 0 0 0 0 0 0  1 103
13  0 0 0 0 0 0 0 0 1 0 0 0 0 0 0  1 104
33  0 0 0 0 0 0 1 0 0 0 0 0 0 0 0  1 105
33  0 1 0 0 0 0 0 0 0 0 0 0 0 0 0  1 106
61  0 0 0 0 0 0 0 0 0 0 0 1 0 0 0  1 677
41  0 0 0 0 0 0 1 0 0 0 0 0 0 0 0  1 108
39  0 0 0 0 0 1 0 0 0 0 0 0 0 0 0  1 109
82  0 0 0 0 0 0 0 0 0 0 0 1 0 0 0  1 110
64  0 0 0 0 0 0 0 0 0 1 0 0 0 0 0  1 111
47  0 0 0 0 0 0 0 0 0 0 0 0 0 0 1  1 112
28  0 0 0 0 0 0 0 0 0 0 1 0 0 0 0  1 113
78  0 0 0 0 0 0 0 1 0 0 0 0 0 0 0  1 114
49  0 0 0 0 0 0 0 0 0 0 0 0 0 1 0  1 115
79  0 1 0 0 0 0 0 0 0 0 0 0 0 0 0  1 116
58  0 0 0 0 1 0 0 0 0 0 0 0 0 0 0  1 117
92  0 0 1 0 0 0 0 0 0 0 0 0 0 0 0  1 118
79  0 0 0 1 0 0 0 0 0 0 0 0 0 0 0  1 119
6  0 0 0 0 0 0 0 0 0 0 0 0 1 0 0  1 120
69  1 0 0 0 0 0 0 0 0 0 0 0 0 0 0  1 121
76  0 0 0 0 0 0 0 0 1 0 0 0 0 0 0  1 677
21  0 0 0 0 0 0 0 0 0 0 0 1 0 0 0  1 123
42  0 0 0 0 0 1 0 0 0 0 0 0 0 0 0  1 124
91  0 0 0 0 0 0 0 0 0 1 0 0 0 0 0  1 125
28  0 0 1 0 0 0 0 0 0 0 0 0 0 0 0  1 126
52  1 0 0 0 0 0 0 0 0 0 0 0 0 0 0  1 127
88  0 0 0 0 0 0 1 0 0 0 0 0 0 0 0  1 128
76  0 0 0 0 0 0 0 0 0 0 0 0 1 0 0  1 129
86  0 0 0 0 0 0 0 0 0 0 0 0 0 1 0  1 130
23  0 0 0 0 0 0 0 0 0 0 1 0 0 0 0  1 131
35  0 1 0 0 0 0 0 0 0 0 0 0 0 0 0  1 132
52  0 0 0 0 0 0 0 1 0 0 0 0 0 0 0  1 133
91  0 0 0 0 1 0 0 0 0 0 0 0 0 0 0  1 134
47  0 0 0 1 0 0 0 0 0 0 0 0 0 0 0  1 135
82  0 0 0 0 0 0 0 0 0 0 0 0 0 0 1  1 136
24  0 0 0 0 0 0 0 0 1 0 0 0 0 0 0  1 677
42  0 0 0 0 0 0 0 0 0 0 0 1 0 0 0  1 138
93  0 1 0 0 0 0 0 0 0 0 0 0 0 0 0  1 139
95  0 0 0 1 0 0 0 0 0 0 0 0 0 0 0  1 140
45  0 0 0 0 0 0 0 0 0 0 0 0 0 1 0  1 141
28  0 0 0 0 0 0 0 0 0 1 0 0 0 0 0  1 142
77  0 0 0 0 0 0 0 0 0 0 0 0 0 0 1  1 143
84  1 0 0 0 0 0 0 0 0 0 0 0 0 0 0  1 144
8  0 0 0 0 0 0 0 0 0 0 1 0 0 0 0  1 145
45  0 0 0 0 0 0 0 1 0 0 0 0 0 0 0  1 146
70  0 0 0 0 1 0 0 0 0 0 0 0 0 0 0  1 147
37  0 0 0 0 0 1 0 0 0 0 0 0 0 0 0  1 148
86  0 0 0 0 0 0 1 0 0 0 0 0 0 0 0  1 149
64  0 0 0 0 0 0 0 0 0 0 0 0 1 0 0  1 150
67  0 0 0 0 0 0 0 0 1 0 0 0 0 0 0  1 151
38  0 0 1 0 0 0 0 0 0 0 0 0 0 0 0  1 677
97  0 0 0 0 1 0 0 0 0 0 0 0 0 0 0  1 153
81  0 0 0 0 0 0 0 0 0 0 0 0 1 0 0  1 154
58  0 1 0 0 0 0 0 0 0 0 0 0 0 0 0  1 155
84  0 0 0 0 0 0 0 1 0 0 0 0 0 0 0  1 156
58  0 0 0 0 0 1 0 0 0 0 0 0 0 0 0  1 157
9  1 0 0 0 0 0 0 0 0 0 0 0 0 0 0  1 158
87  0 0 0 0 0 0 0 0 0 0 0 1 0 0 0  1 159
5  0 0 0 1 0 0 0 0 0 0 0 0 0 0 0  1 160
44  0 0 1 0 0 0 0 0 0 0 0 0 0 0 0  1 161
85  0 0 0 0 0 0 0 0 0 0 0 0 0 1 0  1 162
89  0 0 0 0 0 0 1 0 0 0 0 0 0 0 0  1 163
77  0 0 0 0 0 0 0 0 0 0 1 0 0 0 0  1 164
96  0 0 0 0 0 0 0 0 0 1 0 0 0 0 0  1 165
39  0 0 0 0 0 0 0 0 0 0 0 0 0 0 1  1 166
77  0 0 0 0 0 0 0 0 1 0 0 0 0 0 0  1 677
80  0 0 0 0 0 0 0 0 0 0 0 0 1 0 0  1 168
21  0 1 0 0 0 0 0 0 0 0 0 0 0 0 0  1 169
10  0 0 0 0 0 0 0 0 0 0 1 0 0 0 0  1 170
73  0 0 0 0 0 1 0 0 0 0 0 0 0 0 0  1 171
70  0 0 0 0 0 0 0 0 1 0 0 0 0 0 0  1 172
49  0 0 0 0 0 0 1 0 0 0 0 0 0 0 0  1 173
31  0 0 1 0 0 0 0 0 0 0 0 0 0 0 0  1 174
34  0 0 0 0 0 0 0 0 0 0 0 0 0 1 0  1 175
40  0 0 0 0 1 0 0 0 0 0 0 0 0 0 0  1 176
22  0 0 0 0 0 0 0 0 0 0 0 1 0 0 0  1 177
15  1 0 0 0 0 0 0 0 0 0 0 0 0 0 0  1 178
82  0 0 0 0 0 0 0 0 0 0 0 0 0 0 1  1 179
57  0 0 0 1 0 0 0 0 0 0 0 0 0 0 0  1 180
71  0 0 0 0 0 0 0 0 0 1 0 0 0 0 0  1 181
48  0 0 0 0 0 0 0 1 0 0 0 0 0 0 0  1 677
17  0 0 1 0 0 0 0 0 0 0 0 0 0 0 0  1 183
62  0 0 0 0 0 0 0 1 0 0 0 0 0 0 0  1 184
75  0 0 0 0 0 1 0 0 0 0 0 0 0 0 0  1 185
35  0 0 0 0 0 0 0 0 0 1 0 0 0 0 0  1 186
91  0 1 0 0 0 0 0 0 0 0 0 0 0 0 0  1 187
50  0 0 0 0 0 0 0 0 0 0 0 0 0 0 1  1 188
7  0 0 0 1 0 0 0 0 0 0 0 0 0 0 0  1 189
64  0 0 0 0 0 0 0 0 0 0 1 0 0 0 0  1 190
75  0 0 0 0 0 0 0 0 0 0 0 0 0 1 0  1 191
94  0 0 0 0 0 0 0 0 0 0 0 0 1 0 0  1 192
55  1 0 0 0 0 0 0 0 0 0 0 0 0 0 0  1 193
72  0 0 0 0 0 0 1 0 0 0 0 0 0 0 0  1 194
47  0 0 0 0 0 0 0 0 1 0 0 0 0 0 0  1 195
11  0 0 0 0 1 0 0 0 0 0 0 0 0 0 0  1 196
90  0 0 0 0 0 0 0 0 0 0 0 1 0 0 0  1 677
93  0 0 0 0 0 0 0 0 0 0 0 1 0 0 0  1 198
57  0 0 0 0 0 0 1 0 0 0 0 0 0 0 0  1 199
71  0 1 0 0 0 0 0 0 0 0 0 0 0 0 0  1 200
70  0 0 0 0 0 0 0 0 0 0 0 0 1 0 0  1 201
93  0 0 0 0 0 0 0 0 0 1 0 0 0 0 0  1 202
20  0 0 0 0 0 1 0 0 0 0 0 0 0 0 0  1 203
15  0 0 0 1 0 0 0 0 0 0 0 0 0 0 0  1 204
77  0 0 0 0 0 0 0 0 0 0 0 0 0 1 0  1 205
58  0 0 0 0 0 0 0 0 0 0 1 0 0 0 0  1 206
12  1 0 0 0 0 0 0 0 0 0 0 0 0 0 0  1 207
67  0 0 1 0 0 0 0 0 0 0 0 0 0 0 0  1 208
68  0 0 0 0 0 0 0 0 1 0 0 0 0 0 0  1 209
7  0 0 0 0 0 0 0 0 0 0 0 0 0 0 1  1 210
29  0 0 0 0 0 0 0 1 0 0 0 0 0 0 0  1 211
52  0 0 0 0 1 0 0 0 0 0 0 0 0 0 0  1 677
76  0 0 0 0 0 0 0 0 0 0 0 0 0 1 0  1 213
27  0 0 0 1 0 0 0 0 0 0 0 0 0 0 0  1 214
26  0 0 0 0 1 0 0 0 0 0 0 0 0 0 0  1 215
36  0 0 0 0 0 0 0 0 0 1 0 0 0 0 0  1 216
8  0 0 0 0 0 0 0 0 0 0 0 1 0 0 0  1 217
36  0 0 0 0 0 0 0 0 0 0 1 0 0 0 0  1 218
95  1 0 0 0 0 0 0 0 0 0 0 0 0 0 0  1 219
48  0 0 0 0 0 0 0 0 1 0 0 0 0 0 0  1 220
82  0 0 1 0 0 0 0 0 0 0 0 0 0 0 0  1 221
87  0 0 0 0 0 0 1 0 0 0 0 0 0 0 0  1 222
6  0 0 0 0 0 1 0 0 0 0 0 0 0 0 0  1 223
63  0 1 0 0 0 0 0 0 0 0 0 0 0 0 0  1 224
56  0 0 0 0 0 0 0 1 0 0 0 0 0 0 0  1 225
36  0 0 0 0 0 0 0 0 0 0 0 0 1 0 0  1 226
15  0 0 0 0 0 0 0 0 0 0 0 0 0 0 1  1 677
19  0 0 0 0 0 1 0 0 0 0 0 0 0 0 0  1 228
64  0 0 0 0 0 0 1 0 0 0 0 0 0 0 0  1 229
73  0 0 0 0 0 0 0 0 0 0 0 1 0 0 0  1 230
13  0 0 0 0 0 0 0 0 0 1 0 0 0 0 0  1 231
84  0 0 1 0 0 0 0 0 0 0 0 0 0 0 0  1 232
88  0 0 0 0 0 0 0 0 0 0 0 0 0 0 1  1 233
85  0 0 0 1 0 0 0 0 0 0 0 0 0 0 0  1 234
41  0 0 0 0 0 0 0 0 0 0 1 0 0 0 0  1 235
53  0 0 0 0 0 0 0 0 0 0 0 0 1 0 0  1 236
80  0 0 0 0 0 0 0 0 0 0 0 0 0 1 0  1 237
66  0 1 0 0 0 0 0 0 0 0 0 0 0 0 0  1 238
46  0 0 0 0 0 0 0 1 0 0 0 0 0 0 0  1 239
59  0 0 0 0 0 0 0 0 1 0 0 0 0 0 0  1 240
25  0 0 0 0 1 0 0 0 0 0 0 0 0 0 0  1 241
62  1 0 0 0 0 0 0 0 0 0 0 0 0 0 0  1 677
67  0 1 0 0 0 0 0 0 0 0 0 0 0 0 0  1 243
74  0 0 0 1 0 0 0 0 0 0 0 0 0 0 0  1 244
41  0 0 0 0 0 0 0 1 0 0 0 0 0 0 0  1 245
57  0 0 1 0 0 0 0 0 0 0 0 0 0 0 0  1 246
52  0 0 0 0 0 0 0 0 0 0 0 0 0 0 1  1 247
14  1 0 0 0 0 0 0 0 0 0 0 0 0 0 0  1 248
64  0 0 0 0 0 0 0 0 0 1 0 0 0 0 0  1 249
84  0 0 0 0 0 0 0 0 1 0 0 0 0 0 0  1 250
78  0 0 0 0 0 0 1 0 0 0 0 0 0 0 0  1 251
47  0 0 0 0 0 1 0 0 0 0 0 0 0 0 0  1 252
28  0 0 0 0 0 0 0 0 0 0 0 0 0 1 0  1 253
84  0 0 0 0 1 0 0 0 0 0 0 0 0 0 0  1 254
63  0 0 0 0 0 0 0 0 0 0 1 0 0 0 0  1 255
26  0 0 0 0 0 0 0 0 0 0 0 0 1 0 0  1 256
46  0 0 0 0 0 0 0 0 0 0 0 1 0 0 0  1 677
97  0 0 0 0 0 0 1 0 0 0 0 0 0 0 0  1 258
95  0 0 0 0 0 0 0 0 1 0 0 0 0 0 0  1 259
64  1 0 0 0 0 0 0 0 0 0 0 0 0 0 0  1 260
38  0 0 0 0 0 0 0 0 0 1 0 0 0 0 0  1 261
59  0 0 0 0 0 0 0 0 0 0 1 0 0 0 0  1 262
95  0 0 0 0 0 0 0 0 0 0 0 0 1 0 0  1 263
17  0 0 1 0 0 0 0 0 0 0 0 0 0 0 0  1 264
65  0 0 0 0 0 0 0 0 0 0 0 1 0 0 0  1 265
93  0 0 0 0 0 0 0 0 0 0 0 0 0 1 0  1 266
10  0 0 0 1 0 0 0 0 0 0 0 0 0 0 0  1 267
73  0 0 0 0 0 1 0 0 0 0 0 0 0 0 0  1 268
11  0 1 0 0 0 0 0 0 0 0 0 0 0 0 0  1 269
85  0 0 0 0 1 0 0 0 0 0 0 0 0 0 0  1 270
46  0 0 0 0 0 0 0 0 0 0 0 0 0 0 1  1 271
67  0 0 0 0 0 0 0 1 0 0 0 0 0 0 0  1 677
23  0 0 0 0 0 0 0 0 0 0 1 0 0 0 0  1 273
49  0 0 0 0 0 0 0 0 0 0 0 0 1 0 0  1 274
32  0 0 0 1 0 0 0 0 0 0 0 0 0 0 0  1 275
66  0 0 0 0 1 0 0 0 0 0 0 0 0 0 0  1 276
43  0 0 1 0 0 0 0 0 0 0 0 0 0 0 0  1 277
60  1 0 0 0 0 0 0 0 0 0 0 0 0 0 0  1 278
41  0 0 0 0 0 0 0 0 1 0 0 0 0 0 0  1 279
61  0 0 0 0 0 0 0 1 0 0 0 0 0 0 0  1 280
70  0 0 0 0 0 0 0 0 0 0 0 0 0 1 0  1 281
49  0 0 0 0 0 0 0 0 0 1 0 0 0 0 0  1 282
17  0 0 0 0 0 0 0 0 0 0 0 1 0 0 0  1 283
90  0 0 0 0 0 0 1 0 0 0 0 0 0 0 0  1 284
85  0 1 0 0 0 0 0 0 0 0 0 0 0 0 0  1 285
99  0 0 0 0 0 0 0 0 0 0 0 0 0 0 1  1 286
85  0 0 0 0 0 1 0 0 0 0 0 0 0 0 0  1 677
98  0 0 0 0 0 0 0 0 0 1 0 0 0 0 0  1 288
57  0 0 0 0 0 0 0 0 1 0 0 0 0 0 0  1 289
73  0 0 0 1 0 0 0 0 0 0 0 0 0 0 0  1 290
9  0 0 0 0 0 0 1 0 0 0 0 0 0 0 0  1 291
73  1 0 0 0 0 0 0 0 0 0 0 0 0 0 0  1 292
7  0 0 0 0 0 0 0 1 0 0 0 0 0 0 0  1 293
98  0 1 0 0 0 0 0 0 0 0 0 0 0 0 0  1 294
13  0 0 0 0 1 0 0 0 0 0 0 0 0 0 0  1 295
41  0 0 0 0 0 0 0 0 0 0 0 0 0 1 0  1 296
40  0 0 0 0 0 1 0 0 0 0 0 0 0 0 0  1 297
85  0 0 0 0 0 0 0 0 0 0 0 1 0 0 0  1 298
37  0 0 0 0 0 0 0 0 0 0 1 0 0 0 0  1 299
68  0 0 1 0 0 0 0 0 0 0 0 0 0 0 0  1 300
79  0 0 0 0 0 0 0 0 0 0 0 0 0 0 1  1 301
17  0 0 0 0 0 0 0 0 0 0 0 0 1 0 0  1 677
66  0 0 0 0 0 0 0 0 0 0 0 1 0 0 0  1 303
53  0 0 0 0 0 0 0 1 0 0 0 0 0 0 0  1 304
86  0 0 0 0 0 1 0 0 0 0 0 0 0 0 0  1 305
40  0 0 0 0 0 0 1 0 0 0 0 0 0 0 0  1 306
14  1 0 0 0 0 0 0 0 0 0 0 0 0 0 0  1 307
19  0 0 0 1 0 0 0 0 0 0 0 0 0 0 0  1 308
96  0 0 0 0 0 0 0 0 0 0 0 0 0 1 0  1 309
95  0 0 0 0 1 0 0 0 0 0 0 0 0 0 0  1 310
54  0 0 1 0 0 0 0 0 0 0 0 0 0 0 0  1 311
84  0 0 0 0 0 0 0 0 0 0 1 0 0 0 0  1 312
97  0 0 0 0 0 0 0 0 0 0 0 0 1 0 0  1 313
16  0 0 0 0 0 0 0 0 1 0 0 0 0 0 0  1 314
52  0 0 0 0 0 0 0 0 0 0 0 0 0 0 1  1 315
76  0 1 0 0 0 0 0 0 0 0 0 0 0 0 0  1 316
87  0 0 0 0 0 0 0 0 0 1 0 0 0 0 0  1 677
77  0 0 0 0 1 0 0 0 0 0 0 0 0 0 0  1 318
55  0 0 1 0 0 0 0 0 0 0 0 0 0 0 0  1 319
42  0 0 0 0 0 0 0 0 0 1 0 0 0 0 0  1 320
74  0 0 0 0 0 1 0 0 0 0 0 0 0 0 0  1 321
91  0 0 0 0 0 0 0 0 0 0 0 0 0 0 1  1 322
33  0 0 0 0 0 0 0 0 0 0 0 0 0 1 0  1 323
16  0 0 0 0 0 0 0 0 0 0 1 0 0 0 0  1 324
54  0 0 0 0 0 0 0 0 0 0 0 0 1 0 0  1 325
18  1 0 0 0 0 0 0 0 0 0 0 0 0 0 0  1 326
87  0 0 0 1 0 0 0 0 0 0 0 0 0 0 0  1 327
60  0 0 0 0 0 0 0 1 0 0 0 0 0 0 0  1 328
13  0 0 0 0 0 0 0 0 1 0 0 0 0 0 0  1 329
33  0 0 0 0 0 0 1 0 0 0 0 0 0 0 0  1 330
33  0 1 0 0 0 0 0 0 0 0 0 0 0 0 0  1 331
61  0 0 0 0 0 0 0 0 0 0 0 1 0 0 0  1 677
41  0 0 0 0 0 0 1 0 0 0 0 0 0 0 0  1 333
39  0 0 0 0 0 1 0 0 0 0 0 0 0 0 0  1 334
82  0 0 0 0 0 0 0 0 0 0 0 1 0 0 0  1 335
64  0 0 0 0 0 0 0 0 0 1 0 0 0 0 0  1 336
47  0 0 0 0 0 0 0 0 0 0 0 0 0 0 1  1 337
28  0 0 0 0 0 0 0 0 0 0 1 0 0 0 0  1 338
78  0 0 0 0 0 0 0 1 0 0 0 0 0 0 0  1 339
49  0 0 0 0 0 0 0 0 0 0 0 0 0 1 0  1 340
79  0 1 0 0 0 0 0 0 0 0 0 0 0 0 0  1 341
58  0 0 0 0 1 0 0 0 0 0 0 0 0 0 0  1 342
92  0 0 1 0 0 0 0 0 0 0 0 0 0 0 0  1 343
79  0 0 0 1 0 0 0 0 0 0 0 0 0 0 0  1 344
6  0 0 0 0 0 0 0 0 0 0 0 0 1 0 0  1 345
69  1 0 0 0 0 0 0 0 0 0 0 0 0 0 0  1 346
76  0 0 0 0 0 0 0 0 1 0 0 0 0 0 0  1 677
21  0 0 0 0 0 0 0 0 0 0 0 1 0 0 0  1 348
42  0 0 0 0 0 1 0 0 0 0 0 0 0 0 0  1 349
91  0 0 0 0 0 0 0 0 0 1 0 0 0 0 0  1 350
28  0 0 1 0 0 0 0 0 0 0 0 0 0 0 0  1 351
52  1 0 0 0 0 0 0 0 0 0 0 0 0 0 0  1 352
88  0 0 0 0 0 0 1 0 0 0 0 0 0 0 0  1 353
76  0 0 0 0 0 0 0 0 0 0 0 0 1 0 0  1 354
86  0 0 0 0 0 0 0 0 0 0 0 0 0 1 0  1 355
23  0 0 0 0 0 0 0 0 0 0 1 0 0 0 0  1 356
35  0 1 0 0 0 0 0 0 0 0 0 0 0 0 0  1 357
52  0 0 0 0 0 0 0 1 0 0 0 0 0 0 0  1 358
91  0 0 0 0 1 0 0 0 0 0 0 0 0 0 0  1 359
47  0 0 0 1 0 0 0 0 0 0 0 0 0 0 0  1 360
82  0 0 0 0 0 0 0 0 0 0 0 0 0 0 1  1 361
24  0 0 0 0 0 0 0 0 1 0 0 0 0 0 0  1 677
42  0 0 0 0 0 0 0 0 0 0 0 1 0 0 0  1 363
93  0 1 0 0 0 0 0 0 0 0 0 0 0 0 0  1 364
95  0 0 0 1 0 0 0 0 0 0 0 0 0 0 0  1 365
45  0 0 0 0 0 0 0 0 0 0 0 0 0 1 0  1 366
28  0 0 0 0 0 0 0 0 0 1 0 0 0 0 0  1 367
77  0 0 0 0 0 0 0 0 0 0 0 0 0 0 1  1 368
84  1 0 0 0 0 0 0 0 0 0 0 0 0 0 0  1 369
8  0 0 0 0 0 0 0 0 0 0 1 0 0 0 0  1 370
45  0 0 0 0 0 0 0 1 0 0 0 0 0 0 0  1 371
70  0 0 0 0 1 0 0 0 0 0 0 0 0 0 0  1 372
37  0 0 0 0 0 1 0 0 0 0 0 0 0 0 0  1 373
86  0 0 0 0 0 0 1 0 0 0 0 0 0 0 0  1 374
64  0 0 0 0 0 0 0 0 0 0 0 0 1 0 0  1 375
67  0 0 0 0 0 0 0 0 1 0 0 0 0 0 0  1 376
38  0 0 1 0 0 0 0 0 0 0 0 0 0 0 0  1 677
97  0 0 0 0 1 0 0 0 0 0 0 0 0 0 0  1 378
81  0 0 0 0 0 0 0 0 0 0 0 0 1 0 0  1 379
58  0 1 0 0 0 0 0 0 0 0 0 0 0 0 0  1 380
84  0 0 0 0 0 0 0 1 0 0 0 0 0 0 0  1 381
58  0 0 0 0 0 1 0 0 0 0 0 0 0 0 0  1 382
9  1 0 0 0 0 0 0 0 0 0 0 0 0 0 0  1 383
87  0 0 0 0 0 0 0 0 0 0 0 1 0 0 0  1 384
5  0 0 0 1 0 0 0 0 0 0 0 0 0 0 0  1 385
44  0 0 1 0 0 0 0 0 0 0 0 0 0 0 0  1 386
85  0 0 0 0 0 0 0 0 0 0 0 0 0 1 0  1 387
89  0 0 0 0 0 0 1 0 0 0 0 0 0 0 0  1 388
77  0 0 0 0 0 0 0 0 0 0 1 0 0 0 0  1 389
96  0 0 0 0 0 0 0 0 0 1 0 0 0 0 0  1 390
39  0 0 0 0 0 0 0 0 0 0 0 0 0 0 1  1 391
77  0 0 0 0 0 0 0 0 1 0 0 0 0 0 0  1 677
80  0 0 0 0 0 0 0 0 0 0 0 0 1 0 0  1 393
21  0 1 0 0 0 0 0 0 0 0 0 0 0 0 0  1 394
10  0 0 0 0 0 0 0 0 0 0 1 0 0 0 0  1 395
73  0 0 0 0 0 1 0 0 0 0 0 0 0 0 0  1 396
70  0 0 0 0 0 0 0 0 1 0 0 0 0 0 0  1 397
49  0 0 0 0 0 0 1 0 0 0 0 0 0 0 0  1 398
31  0 0 1 0 0 0 0 0 0 0 0 0 0 0 0  1 399
34  0 0 0 0 0 0 0 0 0 0 0 0 0 1 0  1 400
40  0 0 0 0 1 0 0 0 0 0 0 0 0 0 0  1 401
22  0 0 0 0 0 0 0 0 0 0 0 1 0 0 0  1 402
15  1 0 0 0 0 0 0 0 0 0 0 0 0 0 0  1 403
82  0 0 0 0 0 0 0 0 0 0 0 0 0 0 1  1 404
57  0 0 0 1 0 0 0 0 0 0 0 0 0 0 0  1 405
71  0 0 0 0 0 0 0 0 0 1 0 0 0 0 0  1 406
48  0 0 0 0 0 0 0 1 0 0 0 0 0 0 0  1 677
17  0 0 1 0 0 0 0 0 0 0 0 0 0 0 0  1 408
62  0 0 0 0 0 0 0 1 0 0 0 0 0 0 0  1 409
75  0 0 0 0 0 1 0 0 0 0 0 0 0 0 0  1 410
35  0 0 0 0 0 0 0 0 0 1 0 0 0 0 0  1 411
91  0 1 0 0 0 0 0 0 0 0 0 0 0 0 0  1 412
50  0 0 0 0 0 0 0 0 0 0 0 0 0 0 1  1 413
7  0 0 0 1 0 0 0 0 0 0 0 0 0 0 0  1 414
64  0 0 0 0 0 0 0 0 0 0 1 0 0 0 0  1 415
75  0 0 0 0 0 0 0 0 0 0 0 0 0 1 0  1 416
94  0 0 0 0 0 0 0 0 0 0 0 0 1 0 0  1 417
55  1 0 0 0 0 0 0 0 0 0 0 0 0 0 0  1 418
72  0 0 0 0 0 0 1 0 0 0 0 0 0 0 0  1 419
47  0 0 0 0 0 0 0 0 1 0 0 0 0 0 0  1 420
11  0 0 0 0 1 0 0 0 0 0 0 0 0 0 0  1 421
90  0 0 0 0 0 0 0 0 0 0 0 1 0 0 0  1 677
93  0 0 0 0 0 0 0 0 0 0 0 1 0 0 0  1 423
57  0 0 0 0 0 0 1 0 0 0 0 0 0 0 0  1 424
71  0 1 0 0 0 0 0 0 0 0 0 0 0 0 0  1 425
70  0 0 0 0 0 0 0 0 0 0 0 0 1 0 0  1 426
93  0 0 0 0 0 0 0 0 0 1 0 0 0 0 0  1 427
20  0 0 0 0 0 1 0 0 0 0 0 0 0 0 0  1 428
15  0 0 0 1 0 0 0 0 0 0 0 0 0 0 0  1 429
77  0 0 0 0 0 0 0 0 0 0 0 0 0 1 0  1 430
58  0 0 0 0 0 0 0 0 0 0 1 0 0 0 0  1 431
12  1 0 0 0 0 0 0 0 0 0 0 0 0 0 0  1 432
67  0 0 1 0 0 0 0 0 0 0 0 0 0 0 0  1 433
68  0 0 0 0 0 0 0 0 1 0 0 0 0 0 0  1 434
7  0 0 0 0 0 0 0 0 0 0 0 0 0 0 1  1 435
29  0 0 0 0 0 0 0 1 0 0 0 0 0 0 0  1 436
52  0 0 0 0 1 0 0 0 0 0 0 0 0 0 0  1 677
76  0 0 0 0 0 0 0 0 0 0 0 0 0 1 0  1 438
27  0 0 0 1 0 0 0 0 0 0 0 0 0 0 0  1 439
26  0 0 0 0 1 0 0 0 0 0 0 0 0 0 0  1 440
36  0 0 0 0 0 0 0 0 0 1 0 0 0 0 0  1 441
8  0 0 0 0 0 0 0 0 0 0 0 1 0 0 0  1 442
36  0 0 0 0 0 0 0 0 0 0 1 0 0 0 0  1 443
95  1 0 0 0 0 0 0 0 0 0 0 0 0 0 0  1 444
48  0 0 0 0 0 0 0 0 1 0 0 0 0 0 0  1 445
82  0 0 1 0 0 0 0 0 0 0 0 0 0 0 0  1 446
87  0 0 0 0 0 0 1 0 0 0 0 0 0 0 0  1 447
6  0 0 0 0 0 1 0 0 0 0 0 0 0 0 0  1 448
63  0 1 0 0 0 0 0 0 0 0 0 0 0 0 0  1 449
56  0 0 0 0 0 0 0 1 0 0 0 0 0 0 0  1 450
36  0 0 0 0 0 0 0 0 0 0 0 0 1 0 0  1 451
15  0 0 0 0 0 0 0 0 0 0 0 0 0 0 1  1 677
19  0 0 0 0 0 1 0 0 0 0 0 0 0 0 0  1 453
64  0 0 0 0 0 0 1 0 0 0 0 0 0 0 0  1 454
73  0 0 0 0 0 0 0 0 0 0 0 1 0 0 0  1 455
13  0 0 0 0 0 0 0 0 0 1 0 0 0 0 0  1 456
84  0 0 1 0 0 0 0 0 0 0 0 0 0 0 0  1 457
88  0 0 0 0 0 0 0 0 0 0 0 0 0 0 1  1 458
85  0 0 0 1 0 0 0 0 0 0 0 0 0 0 0  1 459
41  0 0 0 0 0 0 0 0 0 0 1 0 0 0 0  1 460
53  0 0 0 0 0 0 0 0 0 0 0 0 1 0 0  1 461
80  0 0 0 0 0 0 0 0 0 0 0 0 0 1 0  1 462
66  0 1 0 0 0 0 0 0 0 0 0 0 0 0 0  1 463
46  0 0 0 0 0 0 0 1 0 0 0 0 0 0 0  1 464
59  0 0 0 0 0 0 0 0 1 0 0 0 0 0 0  1 465
25  0 0 0 0 1 0 0 0 0 0 0 0 0 0 0  1 466
62  1 0 0 0 0 0 0 0 0 0 0 0 0 0 0  1 677
67  0 1 0 0 0 0 0 0 0 0 0 0 0 0 0  1 468
74  0 0 0 1 0 0 0 0 0 0 0 0 0 0 0  1 469
41  0 0 0 0 0 0 0 1 0 0 0 0 0 0 0  1 470
57  0 0 1 0 0 0 0 0 0 0 0 0 0 0 0  1 471
52  0 0 0 0 0 0 0 0 0 0 0 0 0 0 1  1 472
14  1 0 0 0 0 0 0 0 0 0 0 0 0 0 0  1 473
64  0 0 0 0 0 0 0 0 0 1 0 0 0 0 0  1 474
84  0 0 0 0 0 0 0 0 1 0 0 0 0 0 0  1 475
78  0 0 0 0 0 0 1 0 0 0 0 0 0 0 0  1 476
47  0 0 0 0 0 1 0 0 0 0 0 0 0 0 0  1 477
28  0 0 0 0 0 0 0 0 0 0 0 0 0 1 0  1 478
84  0 0 0 0 1 0 0 0 0 0 0 0 0 0 0  1 479
63  0 0 0 0 0 0 0 0 0 0 1 0 0 0 0  1 480
26  0 0 0 0 0 0 0 0 0 0 0 0 1 0 0  1 481
46  0 0 0 0 0 0 0 0 0 0 0 1 0 0 0  1 677
97  0 0 0 0 0 0 1 0 0 0 0 0 0 0 0  1 483
95  0 0 0 0 0 0 0 0 1 0 0 0 0 0 0  1 484
64  1 0 0 0 0 0 0 0 0 0 0 0 0 0 0  1 485
38  0 0 0 0 0 0 0 0 0 1 0 0 0 0 0  1 486
59  0 0 0 0 0 0 0 0 0 0 1 0 0 0 0  1 487
95  0 0 0 0 0 0 0 0 0 0 0 0 1 0 0  1 488
17  0 0 1 0 0 0 0 0 0 0 0 0 0 0 0  1 489
65  0 0 0 0 0 0 0 0 0 0 0 1 0 0 0  1 490
93  0 0 0 0 0 0 0 0 0 0 0 0 0 1 0  1 491
10  0 0 0 1 0 0 0 0 0 0 0 0 0 0 0  1 492
73  0 0 0 0 0 1 0 0 0 0 0 0 0 0 0  1 493
11  0 1 0 0 0 0 0 0 0 0 0 0 0 0 0  1 494
85  0 0 0 0 1 0 0 0 0 0 0 0 0 0 0  1 495
46  0 0 0 0 0 0 0 0 0 0 0 0 0 0 1  1 496
67  0 0 0 0 0 0 0 1 0 0 0 0 0 0 0  1 677
23  0 0 0 0 0 0 0 0 0 0 1 0 0 0 0  1 498
49  0 0 0 0 0 0 0 0 0 0 0 0 1 0 0  1 499
32  0 0 0 1 0 0 0 0 0 0 0 0 0 0 0  1 500
66  0 0 0 0 1 0 0 0 0 0 0 0 0 0 0  1 501
43  0 0 1 0 0 0 0 0 0 0 0 0 0 0 0  1 502
60  1 0 0 0 0 0 0 0 0 0 0 0 0 0 0  1 503
41  0 0 0 0 0 0 0 0 1 0 0 0 0 0 0  1 504
61  0 0 0 0 0 0 0 1 0 0 0 0 0 0 0  1 505
70  0 0 0 0 0 0 0 0 0 0 0 0 0 1 0  1 506
49  0 0 0 0 0 0 0 0 0 1 0 0 0 0 0  1 507
17  0 0 0 0 0 0 0 0 0 0 0 1 0 0 0  1 508
90  0 0 0 0 0 0 1 0 0 0 0 0 0 0 0  1 509
85  0 1 0 0 0 0 0 0 0 0 0 0 0 0 0  1 510
99  0 0 0 0 0 0 0 0 0 0 0 0 0 0 1  1 511
85  0 0 0 0 0 1 0 0 0 0 0 0 0 0 0  1 677
98  0 0 0 0 0 0 0 0 0 1 0 0 0 0 0  1 513
57  0 0 0 0 0 0 0 0 1 0 0 0 0 0 0  1 514
73  0 0 0 1 0 0 0 0 0 0 0 0 0 0 0  1 515
9  0 0 0 0 0 0 1 0 0 0 0 0 0 0 0  1 516
73  1 0 0 0 0 0 0 0 0 0 0 0 0 0 0  1 517
7  0 0 0 0 0 0 0 1 0 0 0 0 0 0 0  1 518
98  0 1 0 0 0 0 0 0 0 0 0 0 0 0 0  1 519
13  0 0 0 0 1 0 0 0 0 0 0 0 0 0 0  1 520
41  0 0 0 0 0 0 0 0 0 0 0 0 0 1 0  1 521
40  0 0 0 0 0 1 0 0 0 0 0 0 0 0 0  1 522
85  0 0 0 0 0 0 0 0 0 0 0 1 0 0 0  1 523
37  0 0 0 0 0 0 0 0 0 0 1 0 0 0 0  1 524
68  0 0 1 0 0 0 0 0 0 0 0 0 0 0 0  1 525
79  0 0 0 0 0 0 0 0 0 0 0 0 0 0 1  1 526
17  0 0 0 0 0 0 0 0 0 0 0 0 1 0 0  1 677
66  0 0 0 0 0 0 0 0 0 0 0 1 0 0 0  1 528
53  0 0 0 0 0 0 0 1 0 0 0 0 0 0 0  1 529
86  0 0 0 0 0 1 0 0 0 0 0 0 0 0 0  1 530
40  0 0 0 0 0 0 1 0 0 0 0 0 0 0 0  1 531
14  1 0 0 0 0 0 0 0 0 0 0 0 0 0 0  1 532
19  0 0 0 1 0 0 0 0 0 0 0 0 0 0 0  1 533
96  0 0 0 0 0 0 0 0 0 0 0 0 0 1 0  1 534
95  0 0 0 0 1 0 0 0 0 0 0 0 0 0 0  1 535
54  0 0 1 0 0 0 0 0 0 0 0 0 0 0 0  1 536
84  0 0 0 0 0 0 0 0 0 0 1 0 0 0 0  1 537
97  0 0 0 0 0 0 0 0 0 0 0 0 1 0 0  1 538
16  0 0 0 0 0 0 0 0 1 0 0 0 0 0 0  1 539
52  0 0 0 0 0 0 0 0 0 0 0 0 0 0 1  1 540
76  0 1 0 0 0 0 0 0 0 0 0 0 0 0 0  1 541
87  0 0 0 0 0 0 0 0 0 1 0 0 0 0 0  1 677
77  0 0 0 0 1 0 0 0 0 0 0 0 0 0 0  1 543
55  0 0 1 0 0 0 0 0 0 0 0 0 0 0 0  1 544
42  0 0 0 0 0 0 0 0 0 1 0 0 0 0 0  1 545
74  0 0 0 0 0 1 0 0 0 0 0 0 0 0 0  1 546
91  0 0 0 0 0 0 0 0 0 0 0 0 0 0 1  1 547
33  0 0 0 0 0 0 0 0 0 0 0 0 0 1 0  1 548
16  0 0 0 0 0 0 0 0 0 0 1 0 0 0 0  1 549
54  0 0 0 0 0 0 0 0 0 0 0 0 1 0 0  1 550
18  1 0 0 0 0 0 0 0 0 0 0 0 0 0 0  1 551
87  0 0 0 1 0 0 0 0 0 0 0 0 0 0 0  1 552
60  0 0 0 0 0 0 0 1 0 0 0 0 0 0 0  1 553
13  0 0 0 0 0 0 0 0 1 0 0 0 0 0 0  1 554
33  0 0 0 0 0 0 1 0 0 0 0 0 0 0 0  1 555
33  0 1 0 0 0 0 0 0 0 0 0 0 0 0 0  1 556
61  0 0 0 0 0 0 0 0 0 0 0 1 0 0 0  1 677
41  0 0 0 0 0 0 1 0 0 0 0 0 0 0 0  1 558
39  0 0 0 0 0 1 0 0 0 0 0 0 0 0 0  1 559
82  0 0 0 0 0 0 0 0 0 0 0 1 0 0 0  1 560
64  0 0 0 0 0 0 0 0 0 1 0 0 0 0 0  1 561
47  0 0 0 0 0 0 0 0 0 0 0 0 0 0 1  1 562
28  0 0 0 0 0 0 0 0 0 0 1 0 0 0 0  1 563
78  0 0 0 0 0 0 0 1 0 0 0 0 0 0 0  1 564
49  0 0 0 0 0 0 0 0 0 0 0 0 0 1 0  1 565
79  0 1 0 0 0 0 0 0 0 0 0 0 0 0 0  1 566
58  0 0 0 0 1 0 0 0 0 0 0 0 0 0 0  1 567
92  0 0 1 0 0 0 0 0 0 0 0 0 0 0 0  1 568
79  0 0 0 1 0 0 0 0 0 0 0 0 0 0 0  1 569
6  0 0 0 0 0 0 0 0 0 0 0 0 1 0 0  1 570
69  1 0 0 0 0 0 0 0 0 0 0 0 0 0 0  1 571
76  0 0 0 0 0 0 0 0 1 0 0 0 0 0 0  1 677
21  0 0 0 0 0 0 0 0 0 0 0 1 0 0 0  1 573
42  0 0 0 0 0 1 0 0 0 0 0 0 0 0 0  1 574
91  0 0 0 0 0 0 0 0 0 1 0 0 0 0 0  1 575
28  0 0 1 0 0 0 0 0 0 0 0 0 0 0 0  1 576
52  1 0 0 0 0 0 0 0 0 0 0 0 0 0 0  1 577
88  0 0 0 0 0 0 1 0 0 0 0 0 0 0 0  1 578
76  0 0 0 0 0 0 0 0 0 0 0 0 1 0 0  1 579
86  0 0 0 0 0 0 0 0 0 0 0 0 0 1 0  1 580
23  0 0 0 0 0 0 0 0 0 0 1 0 0 0 0  1 581
35  0 1 0 0 0 0 0 0 0 0 0 0 0 0 0  1 582
52  0 0 0 0 0 0 0 1 0 0 0 0 0 0 0  1 583
91  0 0 0 0 1 0 0 0 0 0 0 0 0 0 0  1 584
47  0 0 0 1 0 0 0 0 0 0 0 0 0 0 0  1 585
82  0 0 0 0 0 0 0 0 0 0 0 0 0 0 1  1 586
24  0 0 0 0 0 0 0 0 1 0 0 0 0 0 0  1 677
42  0 0 0 0 0 0 0 0 0 0 0 1 0 0 0  1 588
93  0 1 0 0 0 0 0 0 0 0 0 0 0 0 0  1 589
95  0 0 0 1 0 0 0 0 0 0 0 0 0 0 0  1 590
45  0 0 0 0 0 0 0 0 0 0 0 0 0 1 0  1 591
28  0 0 0 0 0 0 0 0 0 1 0 0 0 0 0  1 592
77  0 0 0 0 0 0 0 0 0 0 0 0 0 0 1  1 593
84  1 0 0 0 0 0 0 0 0 0 0 0 0 0 0  1 594
8  0 0 0 0 0 0 0 0 0 0 1 0 0 0 0  1 595
45  0 0 0 0 0 0 0 1 0 0 0 0 0 0 0  1 596
70  0 0 0 0 1 0 0 0 0 0 0 0 0 0 0  1 597
37  0 0 0 0 0 1 0 0 0 0 0 0 0 0 0  1 598
86  0 0 0 0 0 0 1 0 0 0 0 0 0 0 0  1 599
64  0 0 0 0 0 0 0 0 0 0 0 0 1 0 0  1 600
67  0 0 0 0 0 0 0 0 1 0 0 0 0 0 0  1 601
38  0 0 1 0 0 0 0 0 0 0 0 0 0 0 0  1 677
97  0 0 0 0 1 0 0 0 0 0 0 0 0 0 0  1 603
81  0 0 0 0 0 0 0 0 0 0 0 0 1 0 0  1 604
58  0 1 0 0 0 0 0 0 0 0 0 0 0 0 0  1 605
84  0 0 0 0 0 0 0 1 0 0 0 0 0 0 0  1 606
58  0 0 0 0 0 1 0 0 0 0 0 0 0 0 0  1 607
9  1 0 0 0 0 0 0 0 0 0 0 0 0 0 0  1 608
87  0 0 0 0 0 0 0 0 0 0 0 1 0 0 0  1 609
5  0 0 0 1 0 0 0 0 0 0 0 0 0 0 0  1 610
44  0 0 1 0 0 0 0 0 0 0 0 0 0 0 0  1 611
85  0 0 0 0 0 0 0 0 0 0 0 0 0 1 0  1 612
89  0 0 0 0 0 0 1 0 0 0 0 0 0 0 0  1 613
77  0 0 0 0 0 0 0 0 0 0 1 0 0 0 0  1 614
96  0 0 0 0 0 0 0 0 0 1 0 0 0 0 0  1 615
39  0 0 0 0 0 0 0 0 0 0 0 0 0 0 1  1 616
77  0 0 0 0 0 0 0 0 1 0 0 0 0 0 0  1 677
80  0 0 0 0 0 0 0 0 0 0 0 0 1 0 0  1 618
21  0 1 0 0 0 0 0 0 0 0 0 0 0 0 0  1 619
10  0 0 0 0 0 0 0 0 0 0 1 0 0 0 0  1 620
73  0 0 0 0 0 1 0 0 0 0 0 0 0 0 0  1 621
70  0 0 0 0 0 0 0 0 1 0 0 0 0 0 0  1 622
49  0 0 0 0 0 0 1 0 0 0 0 0 0 0 0  1 623
31  0 0 1 0 0 0 0 0 0 0 0 0 0 0 0  1 624
34  0 0 0 0 0 0 0 0 0 0 0 0 0 1 0  1 625
40  0 0 0 0 1 0 0 0 0 0 0 0 0 0 0  1 626
22  0 0 0 0 0 0 0 0 0 0 0 1 0 0 0  1 627
15  1 0 0 0 0 0 0 0 0 0 0 0 0 0 0  1 628
82  0 0 0 0 0 0 0 0 0 0 0 0 0 0 1  1 629
57  0 0 0 1 0 0 0 0 0 0 0 0 0 0 0  1 630
71  0 0 0 0 0 0 0 0 0 1 0 0 0 0 0  1 631
48  0 0 0 0 0 0 0 1 0 0 0 0 0 0 0  1 677
17  0 0 1 0 0 0 0 0 0 0 0 0 0 0 0  1 633
62  0 0 0 0 0 0 0 1 0 0 0 0 0 0 0  1 634
75  0 0 0 0 0 1 0 0 0 0 0 0 0 0 0  1 635
35  0 0 0 0 0 0 0 0 0 1 0 0 0 0 0  1 636
91  0 1 0 0 0 0 0 0 0 0 0 0 0 0 0  1 637
50  0 0 0 0 0 0 0 0 0 0 0 0 0 0 1  1 638
7  0 0 0 1 0 0 0 0 0 0 0 0 0 0 0  1 639
64  0 0 0 0 0 0 0 0 0 0 1 0 0 0 0  1 640
75  0 0 0 0 0 0 0 0 0 0 0 0 0 1 0  1 641
94  0 0 0 0 0 0 0 0 0 0 0 0 1 0 0  1 642
55  1 0 0 0 0 0 0 0 0 0 0 0 0 0 0  1 643
72  0 0 0 0 0 0 1 0 0 0 0 0 0 0 0  1 644
47  0 0 0 0 0 0 0 0 1 0 0 0 0 0 0  1 645
11  0 0 0 0 1 0 0 0 0 0 0 0 0 0 0  1 646
90  0 0 0 0 0 0 0 0 0 0 0 1 0 0 0  1 677
93  0 0 0 0 0 0 0 0 0 0 0 1 0 0 0  1 648
57  0 0 0 0 0 0 1 0 0 0 0 0 0 0 0  1 649
71  0 1 0 0 0 0 0 0 0 0 0 0 0 0 0  1 650
70  0 0 0 0 0 0 0 0 0 0 0 0 1 0 0  1 651
93  0 0 0 0 0 0 0 0 0 1 0 0 0 0 0  1 652
20  0 0 0 0 0 1 0 0 0 0 0 0 0 0 0  1 653
15  0 0 0 1 0 0 0 0 0 0 0 0 0 0 0  1 654
77  0 0 0 0 0 0 0 0 0 0 0 0 0 1 0  1 655
58  0 0 0 0 0 0 0 0 0 0 1 0 0 0 0  1 656
12  1 0 0 0 0 0 0 0 0 0 0 0 0 0 0  1 657
67  0 0 1 0 0 0 0 0 0 0 0 0 0 0 0  1 658
68  0 0 0 0 0 0 0 0 1 0 0 0 0 0 0  1 659
7  0 0 0 0 0 0 0 0 0 0 0 0 0 0 1  1 660
29  0 0 0 0 0 0 0 1 0 0 0 0 0 0 0  1 661
52  0 0 0 0 1 0 0 0 0 0 0 0 0 0 0  1 677
76  0 0 0 0 0 0 0 0 0 0 0 0 0 1 0  1 663
27  0 0 0 1 0 0 0 0 0 0 0 0 0 0 0  1 664
26  0 0 0 0 1 0 0 0 0 0 0 0 0 0 0  1 665
36  0 0 0 0 0 0 0 0 0 1 0 0 0 0 0  1 666
8  0 0 0 0 0 0 0 0 0 0 0 1 0 0 0  1 667
36  0 0 0 0 0 0 0 0 0 0 1 0 0 0 0  1 668
95  1 0 0 0 0 0 0 0 0 0 0 0 0 0 0  1 669
48  0 0 0 0 0 0 0 0 1 0 0 0 0 0 0  1 670
82  0 0 1 0 0 0 0 0 0 0 0 0 0 0 0  1 671
87  0 0 0 0 0 0 1 0 0 0 0 0 0 0 0  1 672
6  0 0 0 0 0 1 0 0 0 0 0 0 0 0 0  1 673
63  0 1 0 0 0 0 0 0 0 0 0 0 0 0 0  1 674
56  0 0 0 0 0 0 0 1 0 0 0 0 0 0 0  1 675
36  0 0 0 0 0 0 0 0 0 0 0 0 1 0 0  1 676
15  0 0 0 0 0 0 0 0 0 0 0 0 0 0 1  1 677
0  0 0 0 0 0 0 0 0 0 0 0 0 0 0 0  0
